p tw 40 84
0 1
0 26
0 12
0 20
1 19
1 29
1 16
1 35
2 3
2 25
2 17
2 6
2 7
2 23
3 12
3 14
3 29
3 36
4 5
4 26
4 8
4 37
4 25
4 20
4 15
4 29
5 9
5 29
5 6
6 7
6 27
6 31
6 28
6 13
6 20
6 32
7 33
7 15
7 10
7 14
7 21
7 27
7 39
8 9
8 11
10 11
10 15
10 37
10 36
11 12
11 29
11 27
12 31
12 20
13 14
13 22
13 36
14 30
14 27
14 17
14 26
15 16
15 20
16 17
17 18
17 28
19 20
19 29
19 30
20 23
21 22
22 23
22 37
23 24
23 33
24 32
25 30
27 28
28 36
30 32
30 34
34 35
34 36
35 38
